<number of tasks>
20

<cycle time>
1000

<order strength>
0,8


<task times>
1 185
2 220
3 120
4 129
5 41
6 155
7 71
8 79
9 318
10 224
11 81
12 234
13 86
14 99
15 72
16 28
17 135
18 125
19 184
20 312

<precedence relations>
1,3
1,4
2,4
3,5
3,6
4,6
4,9
4,11
5,7
5,8
5,9
6,7
7,10
8,11
9,14
10,13
11,12
11,13
12,15
13,14
13,15
14,16
14,17
14,18
15,16
15,18
15,19
17,19
18,20

<end>
